100
120
100
99
99
98
97
97
96
95
95
94
93
93
91
91
91
90
89
88
86
86
85
82
82
82
81
81
80
79
79
78
78
76
74
73
69
68
67
67
66
66
66
66
64
63
62
62
60
60
59
58
56
54
53
52
51
50
50
49
48
47
46
46
44
44
43
43
43
43
43
42
42
41
41
40
39
36
35
34
33
33
33
32
32
32
31
30
30
30
29
29
27
26
25
24
24
23
22
22
20
20
